Route #1: 4 45 29 5 48 30
Route #2: 2 62 22 28 61 21
Route #3: 47 36 60 20 37 15 57 13 54
Route #4: 27 52 19 35 8 46 34
Route #5: 7 53 14 59 11
Route #6: 58 38 10 31 39
Route #7: 9 25 55 18 50 44 3
Route #8: 32 24 49 16 63 33
Route #9: 1 43 42 64 41 56 23
Route #10: 6 51 17 40 12 26
Cost 827